\ Equation counts
\     Total        E        G        L        N        X        C        B
\	364	364	0	0
\
\ Variable counts
\                  x        b        i      s1s      s2s       sc       si
\     Total     cont   binary  integer     sos1     sos2    scont     sint
\	30	30

\ Nonzero counts
\     Total    const       NL      DLL
\
\
Minimize
 obj: [ - 17.0 x_1 * x_1 - 22.5 x_1 * x_2 + 2.0 x_1 * x_3 + 3.0 x_1 * x_4 + 7.0 x_1 * x_5 - 24.0 x_1 * x_6 - 6.5 x_1 * x_7 + 13.0 x_1 * x_8 + 8.0 x_1 * x_9 - 12.5 x_1 * x_10 + 20.5 x_1 * x_11 + 12.5 x_1 * x_12 + 3.0 x_1 * x_13 + 7.5 x_1 * x_14 + 5.5 x_1 * x_15 + 10.0 x_1 * x_16 - 13.0 x_1 * x_17 + 14.5 x_1 * x_18 + 12.0 x_1 * x_19 + 7.5 x_1 * x_20 + 2.0 x_1 * x_21 - 6.0 x_1 * x_22 - 20.0 x_1 * x_23 - 17.5 x_1 * x_24 - 19.5 x_1 * x_25 - 8.0 x_1 * x_26 + 0.5 x_1 * x_27 - 19.0 x_1 * x_28 + 13.5 x_1 * x_29 + 2.0 x_1 * x_30 - 22.5 x_2 * x_1 - 17.0 x_2 * x_2 + 21.0 x_2 * x_3 + 3.5 x_2 * x_5 - 10.0 x_2 * x_6 - 11.0 x_2 * x_7 + 3.5 x_2 * x_8 + 20.0 x_2 * x_9 - 7.5 x_2 * x_10 - 10.0 x_2 * x_11 - 22.0 x_2 * x_12 + 16.0 x_2 * x_13 + 2.0 x_2 * x_14 + 19.5 x_2 * x_15 - 8.0 x_2 * x_16 + 3.0 x_2 * x_17 - 6.0 x_2 * x_18 + 16.5 x_2 * x_19 - 13.5 x_2 * x_20 - 17.0 x_2 * x_21 - 7.0 x_2 * x_22 - 19.5 x_2 * x_23 - 7.0 x_2 * x_24 + 7.5 x_2 * x_25 - 16.0 x_2 * x_26 - 18.0 x_2 * x_27 + 15.5 x_2 * x_28 - 13.0 x_2 * x_29 - 13.5 x_2 * x_30 + 2.0 x_3 * x_1 + 21.0 x_3 * x_2 + 14.0 x_3 * x_3 - 6.0 x_3 * x_4 + 4.5 x_3 * x_5 - 20.5 x_3 * x_6 + 14.0 x_3 * x_7 - 18.0 x_3 * x_8 + 2.5 x_3 * x_9 - 3.5 x_3 * x_10 - 13.5 x_3 * x_11 + 21.5 x_3 * x_12 - 8.0 x_3 * x_13 + 24.5 x_3 * x_14 + 24.0 x_3 * x_15 - 17.5 x_3 * x_16 - 7.5 x_3 * x_17 + 21.0 x_3 * x_19 - 11.0 x_3 * x_20 + 15.0 x_3 * x_21 + 11.5 x_3 * x_22 - 21.5 x_3 * x_23 + 23.0 x_3 * x_24 - 3.0 x_3 * x_25 + 1.5 x_3 * x_26 + 4.5 x_3 * x_27 + 21.5 x_3 * x_28 - 15.0 x_3 * x_29 + 18.5 x_3 * x_30 + 3.0 x_4 * x_1 - 6.0 x_4 * x_3 - 8.0 x_4 * x_4 - 14.5 x_4 * x_5 + 23.5 x_4 * x_6 - 3.5 x_4 * x_7 - 14.5 x_4 * x_8 - 19.5 x_4 * x_9 - 17.0 x_4 * x_10 - 15.0 x_4 * x_11 - 8.0 x_4 * x_12 + 3.5 x_4 * x_13 - 10.5 x_4 * x_14 + 11.5 x_4 * x_15 - 6.0 x_4 * x_17 + 16.0 x_4 * x_18 - 2.5 x_4 * x_19 - 8.5 x_4 * x_20 + 22.5 x_4 * x_21 + 21.0 x_4 * x_22 + 7.0 x_4 * x_23 + 13.5 x_4 * x_24 - 24.0 x_4 * x_25 - 8.5 x_4 * x_26 - 14.5 x_4 * x_27 + 2.0 x_4 * x_28 - 4.0 x_4 * x_29 - 1.0 x_4 * x_30 + 7.0 x_5 * x_1 + 3.5 x_5 * x_2 + 4.5 x_5 * x_3 - 14.5 x_5 * x_4 + 8.5 x_5 * x_5 - 2.5 x_5 * x_6 - 20.5 x_5 * x_7 + 23.5 x_5 * x_8 - 1.5 x_5 * x_9 + 7.0 x_5 * x_10 - 15.0 x_5 * x_11 + 3.5 x_5 * x_12 + 14.5 x_5 * x_13 + 12.0 x_5 * x_14 - 15.5 x_5 * x_15 - 5.5 x_5 * x_16 - 14.5 x_5 * x_17 - 19.5 x_5 * x_18 + 11.5 x_5 * x_19 - 12.0 x_5 * x_20 - 5.0 x_5 * x_21 + 22.0 x_5 * x_22 - 23.5 x_5 * x_23 + 6.0 x_5 * x_24 - 4.5 x_5 * x_25 - 5.5 x_5 * x_26 + 14.5 x_5 * x_27 + 7.5 x_5 * x_28 - 9.5 x_5 * x_29 - 21.5 x_5 * x_30 - 24.0 x_6 * x_1 - 10.0 x_6 * x_2 - 20.5 x_6 * x_3 + 23.5 x_6 * x_4 - 2.5 x_6 * x_5 - 16.5 x_6 * x_6 + 11.0 x_6 * x_7 - 6.0 x_6 * x_8 - 3.0 x_6 * x_9 - 9.0 x_6 * x_10 + 1.0 x_6 * x_11 + 16.0 x_6 * x_12 + 17.5 x_6 * x_13 + 22.0 x_6 * x_14 + 3.0 x_6 * x_15 - 17.0 x_6 * x_16 + 20.5 x_6 * x_17 + 6.0 x_6 * x_18 + 24.5 x_6 * x_19 + 1.0 x_6 * x_20 - 1.0 x_6 * x_21 - 11.0 x_6 * x_22 - 24.5 x_6 * x_23 - 7.0 x_6 * x_24 + 10.0 x_6 * x_25 + 7.0 x_6 * x_26 - 17.5 x_6 * x_27 + 16.0 x_6 * x_28 - 11.0 x_6 * x_29 + 7.0 x_6 * x_30 - 6.5 x_7 * x_1 - 11.0 x_7 * x_2 + 14.0 x_7 * x_3 - 3.5 x_7 * x_4 - 20.5 x_7 * x_5 + 11.0 x_7 * x_6 + 6.0 x_7 * x_7 - 12.5 x_7 * x_8 - 2.5 x_7 * x_9 - 19.0 x_7 * x_10 - 9.5 x_7 * x_11 - 22.0 x_7 * x_12 + 19.5 x_7 * x_13 - 5.0 x_7 * x_14 + 8.5 x_7 * x_15 + 7.0 x_7 * x_16 + 1.5 x_7 * x_17 + 11.5 x_7 * x_18 - 8.5 x_7 * x_19 - 8.5 x_7 * x_20 + 1.0 x_7 * x_21 - 22.5 x_7 * x_22 - 7.5 x_7 * x_23 - 1.5 x_7 * x_24 - 10.0 x_7 * x_25 + 24.0 x_7 * x_26 - 17.5 x_7 * x_27 + 11.5 x_7 * x_28 - 14.5 x_7 * x_29 + 7.0 x_7 * x_30 + 13.0 x_8 * x_1 + 3.5 x_8 * x_2 - 18.0 x_8 * x_3 - 14.5 x_8 * x_4 + 23.5 x_8 * x_5 - 6.0 x_8 * x_6 - 12.5 x_8 * x_7 + 7.0 x_8 * x_8 - 10.0 x_8 * x_9 - 3.5 x_8 * x_10 + 9.5 x_8 * x_11 + 3.0 x_8 * x_12 + 20.5 x_8 * x_13 - 12.5 x_8 * x_14 + 10.5 x_8 * x_15 - 5.0 x_8 * x_16 + 1.5 x_8 * x_17 - 24.5 x_8 * x_18 - 9.0 x_8 * x_19 + 13.0 x_8 * x_20 - 3.5 x_8 * x_21 - 24.0 x_8 * x_22 - 13.5 x_8 * x_23 - 3.0 x_8 * x_24 - 23.0 x_8 * x_25 - 21.5 x_8 * x_26 - 2.5 x_8 * x_27 + 21.0 x_8 * x_28 + 21.5 x_8 * x_29 - 7.5 x_8 * x_30 + 8.0 x_9 * x_1 + 20.0 x_9 * x_2 + 2.5 x_9 * x_3 - 19.5 x_9 * x_4 - 1.5 x_9 * x_5 - 3.0 x_9 * x_6 - 2.5 x_9 * x_7 - 10.0 x_9 * x_8 + 3.5 x_9 * x_9 - 18.0 x_9 * x_10 - 5.0 x_9 * x_11 + 15.5 x_9 * x_12 - 5.5 x_9 * x_13 - 15.0 x_9 * x_14 + 23.0 x_9 * x_15 + 15.0 x_9 * x_16 + 10.0 x_9 * x_17 - 7.5 x_9 * x_18 - 11.0 x_9 * x_19 - 13.5 x_9 * x_20 - 20.0 x_9 * x_21 + 4.0 x_9 * x_22 - 15.5 x_9 * x_23 - 15.5 x_9 * x_24 - 15.0 x_9 * x_25 - 17.0 x_9 * x_26 - 2.5 x_9 * x_27 - 20.0 x_9 * x_28 + 6.5 x_9 * x_29 + 21.0 x_9 * x_30 - 12.5 x_10 * x_1 - 7.5 x_10 * x_2 - 3.5 x_10 * x_3 - 17.0 x_10 * x_4 + 7.0 x_10 * x_5 - 9.0 x_10 * x_6 - 19.0 x_10 * x_7 - 3.5 x_10 * x_8 - 18.0 x_10 * x_9 + 22.0 x_10 * x_10 + 1.5 x_10 * x_11 - 7.0 x_10 * x_12 + 23.5 x_10 * x_13 - 13.0 x_10 * x_14 + 14.5 x_10 * x_15 + 11.0 x_10 * x_16 - 13.5 x_10 * x_17 - 3.0 x_10 * x_18 - 14.5 x_10 * x_19 + 22.0 x_10 * x_21 + 10.0 x_10 * x_22 - 16.5 x_10 * x_23 - 16.0 x_10 * x_24 - 14.5 x_10 * x_25 - 14.0 x_10 * x_26 + 4.0 x_10 * x_27 + 0.5 x_10 * x_28 + 12.0 x_10 * x_29 + 6.5 x_10 * x_30 + 20.5 x_11 * x_1 - 10.0 x_11 * x_2 - 13.5 x_11 * x_3 - 15.0 x_11 * x_4 - 15.0 x_11 * x_5 + 1.0 x_11 * x_6 - 9.5 x_11 * x_7 + 9.5 x_11 * x_8 - 5.0 x_11 * x_9 + 1.5 x_11 * x_10 + 23.5 x_11 * x_11 - 6.5 x_11 * x_12 + 8.5 x_11 * x_13 - 7.0 x_11 * x_14 + 17.5 x_11 * x_15 - 23.0 x_11 * x_16 + 3.5 x_11 * x_17 - 4.5 x_11 * x_18 - 23.5 x_11 * x_19 + 16.5 x_11 * x_20 - 19.5 x_11 * x_21 - 17.0 x_11 * x_22 + 21.5 x_11 * x_23 + 5.5 x_11 * x_24 + 15.0 x_11 * x_25 - 22.0 x_11 * x_26 + 22.0 x_11 * x_27 - 17.5 x_11 * x_28 + 8.0 x_11 * x_29 - 19.0 x_11 * x_30 + 12.5 x_12 * x_1 - 22.0 x_12 * x_2 + 21.5 x_12 * x_3 - 8.0 x_12 * x_4 + 3.5 x_12 * x_5 + 16.0 x_12 * x_6 - 22.0 x_12 * x_7 + 3.0 x_12 * x_8 + 15.5 x_12 * x_9 - 7.0 x_12 * x_10 - 6.5 x_12 * x_11 - 18.5 x_12 * x_12 + 24.0 x_12 * x_13 - 1.5 x_12 * x_14 + 5.0 x_12 * x_15 - 21.5 x_12 * x_16 - 14.5 x_12 * x_17 - 16.0 x_12 * x_18 + 20.0 x_12 * x_20 + 5.5 x_12 * x_21 + 17.0 x_12 * x_22 + 6.5 x_12 * x_23 + 23.0 x_12 * x_24 - 0.5 x_12 * x_25 - 1.5 x_12 * x_26 + 13.0 x_12 * x_27 + 1.0 x_12 * x_28 + 17.5 x_12 * x_29 + 15.5 x_12 * x_30 + 3.0 x_13 * x_1 + 16.0 x_13 * x_2 - 8.0 x_13 * x_3 + 3.5 x_13 * x_4 + 14.5 x_13 * x_5 + 17.5 x_13 * x_6 + 19.5 x_13 * x_7 + 20.5 x_13 * x_8 - 5.5 x_13 * x_9 + 23.5 x_13 * x_10 + 8.5 x_13 * x_11 + 24.0 x_13 * x_12 - 8.0 x_13 * x_13 + 9.0 x_13 * x_14 + 16.5 x_13 * x_15 - 20.5 x_13 * x_16 + 22.0 x_13 * x_17 - 24.0 x_13 * x_18 - 4.5 x_13 * x_19 - 6.5 x_13 * x_20 + 14.0 x_13 * x_21 + 21.5 x_13 * x_22 + 14.0 x_13 * x_23 - 6.5 x_13 * x_24 + 4.5 x_13 * x_25 - 15.5 x_13 * x_26 - 21.0 x_13 * x_28 - 4.0 x_13 * x_29 + 18.0 x_13 * x_30 + 7.5 x_14 * x_1 + 2.0 x_14 * x_2 + 24.5 x_14 * x_3 - 10.5 x_14 * x_4 + 12.0 x_14 * x_5 + 22.0 x_14 * x_6 - 5.0 x_14 * x_7 - 12.5 x_14 * x_8 - 15.0 x_14 * x_9 - 13.0 x_14 * x_10 - 7.0 x_14 * x_11 - 1.5 x_14 * x_12 + 9.0 x_14 * x_13 - 5.5 x_14 * x_14 + 18.5 x_14 * x_15 + 23.0 x_14 * x_16 - 22.5 x_14 * x_17 - 20.0 x_14 * x_18 + 9.5 x_14 * x_19 + 13.0 x_14 * x_20 + 21.5 x_14 * x_21 + 24.5 x_14 * x_22 - 5.0 x_14 * x_23 + 20.5 x_14 * x_24 - 5.5 x_14 * x_25 - 8.5 x_14 * x_26 + 16.5 x_14 * x_27 + 24.5 x_14 * x_28 + 20.0 x_14 * x_29 + 23.0 x_14 * x_30 + 5.5 x_15 * x_1 + 19.5 x_15 * x_2 + 24.0 x_15 * x_3 + 11.5 x_15 * x_4 - 15.5 x_15 * x_5 + 3.0 x_15 * x_6 + 8.5 x_15 * x_7 + 10.5 x_15 * x_8 + 23.0 x_15 * x_9 + 14.5 x_15 * x_10 + 17.5 x_15 * x_11 + 5.0 x_15 * x_12 + 16.5 x_15 * x_13 + 18.5 x_15 * x_14 - 3.0 x_15 * x_15 + 12.5 x_15 * x_16 - 5.5 x_15 * x_17 + 12.5 x_15 * x_18 + 20.0 x_15 * x_19 - 5.5 x_15 * x_20 + 5.0 x_15 * x_21 - 18.5 x_15 * x_22 + 24.0 x_15 * x_23 - 15.0 x_15 * x_24 - 20.5 x_15 * x_25 - 1.0 x_15 * x_26 - 4.0 x_15 * x_27 + 16.5 x_15 * x_28 + 24.5 x_15 * x_29 - 11.5 x_15 * x_30 + 10.0 x_16 * x_1 - 8.0 x_16 * x_2 - 17.5 x_16 * x_3 - 5.5 x_16 * x_5 - 17.0 x_16 * x_6 + 7.0 x_16 * x_7 - 5.0 x_16 * x_8 + 15.0 x_16 * x_9 + 11.0 x_16 * x_10 - 23.0 x_16 * x_11 - 21.5 x_16 * x_12 - 20.5 x_16 * x_13 + 23.0 x_16 * x_14 + 12.5 x_16 * x_15 - 14.5 x_16 * x_16 - 19.5 x_16 * x_17 + 10.0 x_16 * x_18 - 10.5 x_16 * x_19 + 4.0 x_16 * x_20 - 14.5 x_16 * x_21 + 9.5 x_16 * x_22 + 14.5 x_16 * x_23 - 15.0 x_16 * x_24 + 2.5 x_16 * x_25 + 5.5 x_16 * x_26 + 16.5 x_16 * x_27 - 13.0 x_16 * x_28 + 19.5 x_16 * x_29 - 24.5 x_16 * x_30 - 13.0 x_17 * x_1 + 3.0 x_17 * x_2 - 7.5 x_17 * x_3 - 6.0 x_17 * x_4 - 14.5 x_17 * x_5 + 20.5 x_17 * x_6 + 1.5 x_17 * x_7 + 1.5 x_17 * x_8 + 10.0 x_17 * x_9 - 13.5 x_17 * x_10 + 3.5 x_17 * x_11 - 14.5 x_17 * x_12 + 22.0 x_17 * x_13 - 22.5 x_17 * x_14 - 5.5 x_17 * x_15 - 19.5 x_17 * x_16 + 11.0 x_17 * x_17 - 22.0 x_17 * x_18 - 12.5 x_17 * x_19 - 8.5 x_17 * x_20 + 13.0 x_17 * x_21 - 18.5 x_17 * x_22 - 24.5 x_17 * x_23 + 11.0 x_17 * x_24 + 21.5 x_17 * x_25 - 3.5 x_17 * x_26 + 0.5 x_17 * x_27 + 11.0 x_17 * x_28 + 9.0 x_17 * x_29 - 7.5 x_17 * x_30 + 14.5 x_18 * x_1 - 6.0 x_18 * x_2 + 16.0 x_18 * x_4 - 19.5 x_18 * x_5 + 6.0 x_18 * x_6 + 11.5 x_18 * x_7 - 24.5 x_18 * x_8 - 7.5 x_18 * x_9 - 3.0 x_18 * x_10 - 4.5 x_18 * x_11 - 16.0 x_18 * x_12 - 24.0 x_18 * x_13 - 20.0 x_18 * x_14 + 12.5 x_18 * x_15 + 10.0 x_18 * x_16 - 22.0 x_18 * x_17 + 20.0 x_18 * x_18 + 4.5 x_18 * x_19 + 9.5 x_18 * x_20 + 13.5 x_18 * x_21 - 22.0 x_18 * x_22 + 18.0 x_18 * x_23 - 1.0 x_18 * x_24 + 13.5 x_18 * x_25 + 10.5 x_18 * x_26 + 22.5 x_18 * x_27 + 7.5 x_18 * x_28 + 19.0 x_18 * x_29 - 17.5 x_18 * x_30 + 12.0 x_19 * x_1 + 16.5 x_19 * x_2 + 21.0 x_19 * x_3 - 2.5 x_19 * x_4 + 11.5 x_19 * x_5 + 24.5 x_19 * x_6 - 8.5 x_19 * x_7 - 9.0 x_19 * x_8 - 11.0 x_19 * x_9 - 14.5 x_19 * x_10 - 23.5 x_19 * x_11 - 4.5 x_19 * x_13 + 9.5 x_19 * x_14 + 20.0 x_19 * x_15 - 10.5 x_19 * x_16 - 12.5 x_19 * x_17 + 4.5 x_19 * x_18 - 9.5 x_19 * x_19 - 24.0 x_19 * x_20 + 14.5 x_19 * x_21 + 9.0 x_19 * x_22 + 16.0 x_19 * x_23 + 11.5 x_19 * x_24 - 24.5 x_19 * x_25 - 19.0 x_19 * x_26 + 21.5 x_19 * x_27 - 21.5 x_19 * x_28 - 7.5 x_19 * x_29 + 8.5 x_19 * x_30 + 7.5 x_20 * x_1 - 13.5 x_20 * x_2 - 11.0 x_20 * x_3 - 8.5 x_20 * x_4 - 12.0 x_20 * x_5 + 1.0 x_20 * x_6 - 8.5 x_20 * x_7 + 13.0 x_20 * x_8 - 13.5 x_20 * x_9 + 16.5 x_20 * x_11 + 20.0 x_20 * x_12 - 6.5 x_20 * x_13 + 13.0 x_20 * x_14 - 5.5 x_20 * x_15 + 4.0 x_20 * x_16 - 8.5 x_20 * x_17 + 9.5 x_20 * x_18 - 24.0 x_20 * x_19 + 23.0 x_20 * x_20 - 20.0 x_20 * x_21 + 21.0 x_20 * x_22 + 20.0 x_20 * x_23 + 5.0 x_20 * x_24 - 18.0 x_20 * x_25 - 15.5 x_20 * x_26 - 21.0 x_20 * x_27 + 2.5 x_20 * x_28 - 16.5 x_20 * x_29 + 15.5 x_20 * x_30 + 2.0 x_21 * x_1 - 17.0 x_21 * x_2 + 15.0 x_21 * x_3 + 22.5 x_21 * x_4 - 5.0 x_21 * x_5 - 1.0 x_21 * x_6 + 1.0 x_21 * x_7 - 3.5 x_21 * x_8 - 20.0 x_21 * x_9 + 22.0 x_21 * x_10 - 19.5 x_21 * x_11 + 5.5 x_21 * x_12 + 14.0 x_21 * x_13 + 21.5 x_21 * x_14 + 5.0 x_21 * x_15 - 14.5 x_21 * x_16 + 13.0 x_21 * x_17 + 13.5 x_21 * x_18 + 14.5 x_21 * x_19 - 20.0 x_21 * x_20 + 21.5 x_21 * x_21 + 4.5 x_21 * x_22 - 22.5 x_21 * x_23 - 2.5 x_21 * x_24 + 21.0 x_21 * x_25 - 1.5 x_21 * x_26 + 19.5 x_21 * x_27 + 16.0 x_21 * x_28 + 2.0 x_21 * x_29 + 9.0 x_21 * x_30 - 6.0 x_22 * x_1 - 7.0 x_22 * x_2 + 11.5 x_22 * x_3 + 21.0 x_22 * x_4 + 22.0 x_22 * x_5 - 11.0 x_22 * x_6 - 22.5 x_22 * x_7 - 24.0 x_22 * x_8 + 4.0 x_22 * x_9 + 10.0 x_22 * x_10 - 17.0 x_22 * x_11 + 17.0 x_22 * x_12 + 21.5 x_22 * x_13 + 24.5 x_22 * x_14 - 18.5 x_22 * x_15 + 9.5 x_22 * x_16 - 18.5 x_22 * x_17 - 22.0 x_22 * x_18 + 9.0 x_22 * x_19 + 21.0 x_22 * x_20 + 4.5 x_22 * x_21 + 6.0 x_22 * x_22 + 3.5 x_22 * x_23 - 14.0 x_22 * x_24 + 20.5 x_22 * x_25 + 20.5 x_22 * x_26 - 8.0 x_22 * x_27 - 11.0 x_22 * x_29 - 16.5 x_22 * x_30 - 20.0 x_23 * x_1 - 19.5 x_23 * x_2 - 21.5 x_23 * x_3 + 7.0 x_23 * x_4 - 23.5 x_23 * x_5 - 24.5 x_23 * x_6 - 7.5 x_23 * x_7 - 13.5 x_23 * x_8 - 15.5 x_23 * x_9 - 16.5 x_23 * x_10 + 21.5 x_23 * x_11 + 6.5 x_23 * x_12 + 14.0 x_23 * x_13 - 5.0 x_23 * x_14 + 24.0 x_23 * x_15 + 14.5 x_23 * x_16 - 24.5 x_23 * x_17 + 18.0 x_23 * x_18 + 16.0 x_23 * x_19 + 20.0 x_23 * x_20 - 22.5 x_23 * x_21 + 3.5 x_23 * x_22 + 3.0 x_23 * x_23 - 24.0 x_23 * x_24 - 23.5 x_23 * x_25 - 10.5 x_23 * x_26 - 3.0 x_23 * x_27 + 20.0 x_23 * x_28 + 16.0 x_23 * x_29 - 15.5 x_23 * x_30 - 17.5 x_24 * x_1 - 7.0 x_24 * x_2 + 23.0 x_24 * x_3 + 13.5 x_24 * x_4 + 6.0 x_24 * x_5 - 7.0 x_24 * x_6 - 1.5 x_24 * x_7 - 3.0 x_24 * x_8 - 15.5 x_24 * x_9 - 16.0 x_24 * x_10 + 5.5 x_24 * x_11 + 23.0 x_24 * x_12 - 6.5 x_24 * x_13 + 20.5 x_24 * x_14 - 15.0 x_24 * x_15 - 15.0 x_24 * x_16 + 11.0 x_24 * x_17 - 1.0 x_24 * x_18 + 11.5 x_24 * x_19 + 5.0 x_24 * x_20 - 2.5 x_24 * x_21 - 14.0 x_24 * x_22 - 24.0 x_24 * x_23 + 3.0 x_24 * x_24 + 10.5 x_24 * x_25 - 17.0 x_24 * x_26 - 17.0 x_24 * x_27 + 7.0 x_24 * x_28 + 13.0 x_24 * x_29 - 7.0 x_24 * x_30 - 19.5 x_25 * x_1 + 7.5 x_25 * x_2 - 3.0 x_25 * x_3 - 24.0 x_25 * x_4 - 4.5 x_25 * x_5 + 10.0 x_25 * x_6 - 10.0 x_25 * x_7 - 23.0 x_25 * x_8 - 15.0 x_25 * x_9 - 14.5 x_25 * x_10 + 15.0 x_25 * x_11 - 0.5 x_25 * x_12 + 4.5 x_25 * x_13 - 5.5 x_25 * x_14 - 20.5 x_25 * x_15 + 2.5 x_25 * x_16 + 21.5 x_25 * x_17 + 13.5 x_25 * x_18 - 24.5 x_25 * x_19 - 18.0 x_25 * x_20 + 21.0 x_25 * x_21 + 20.5 x_25 * x_22 - 23.5 x_25 * x_23 + 10.5 x_25 * x_24 - 20.0 x_25 * x_25 + 19.0 x_25 * x_26 + 16.5 x_25 * x_27 - 9.0 x_25 * x_28 + 1.5 x_25 * x_29 + 2.5 x_25 * x_30 - 8.0 x_26 * x_1 - 16.0 x_26 * x_2 + 1.5 x_26 * x_3 - 8.5 x_26 * x_4 - 5.5 x_26 * x_5 + 7.0 x_26 * x_6 + 24.0 x_26 * x_7 - 21.5 x_26 * x_8 - 17.0 x_26 * x_9 - 14.0 x_26 * x_10 - 22.0 x_26 * x_11 - 1.5 x_26 * x_12 - 15.5 x_26 * x_13 - 8.5 x_26 * x_14 - 1.0 x_26 * x_15 + 5.5 x_26 * x_16 - 3.5 x_26 * x_17 + 10.5 x_26 * x_18 - 19.0 x_26 * x_19 - 15.5 x_26 * x_20 - 1.5 x_26 * x_21 + 20.5 x_26 * x_22 - 10.5 x_26 * x_23 - 17.0 x_26 * x_24 + 19.0 x_26 * x_25 - 11.5 x_26 * x_26 + 4.5 x_26 * x_27 - 16.5 x_26 * x_28 - 13.0 x_26 * x_29 + 13.0 x_26 * x_30 + 0.5 x_27 * x_1 - 18.0 x_27 * x_2 + 4.5 x_27 * x_3 - 14.5 x_27 * x_4 + 14.5 x_27 * x_5 - 17.5 x_27 * x_6 - 17.5 x_27 * x_7 - 2.5 x_27 * x_8 - 2.5 x_27 * x_9 + 4.0 x_27 * x_10 + 22.0 x_27 * x_11 + 13.0 x_27 * x_12 + 16.5 x_27 * x_14 - 4.0 x_27 * x_15 + 16.5 x_27 * x_16 + 0.5 x_27 * x_17 + 22.5 x_27 * x_18 + 21.5 x_27 * x_19 - 21.0 x_27 * x_20 + 19.5 x_27 * x_21 - 8.0 x_27 * x_22 - 3.0 x_27 * x_23 - 17.0 x_27 * x_24 + 16.5 x_27 * x_25 + 4.5 x_27 * x_26 - 10.5 x_27 * x_27 + 24.5 x_27 * x_28 + 11.5 x_27 * x_29 + 3.5 x_27 * x_30 - 19.0 x_28 * x_1 + 15.5 x_28 * x_2 + 21.5 x_28 * x_3 + 2.0 x_28 * x_4 + 7.5 x_28 * x_5 + 16.0 x_28 * x_6 + 11.5 x_28 * x_7 + 21.0 x_28 * x_8 - 20.0 x_28 * x_9 + 0.5 x_28 * x_10 - 17.5 x_28 * x_11 + 1.0 x_28 * x_12 - 21.0 x_28 * x_13 + 24.5 x_28 * x_14 + 16.5 x_28 * x_15 - 13.0 x_28 * x_16 + 11.0 x_28 * x_17 + 7.5 x_28 * x_18 - 21.5 x_28 * x_19 + 2.5 x_28 * x_20 + 16.0 x_28 * x_21 + 20.0 x_28 * x_23 + 7.0 x_28 * x_24 - 9.0 x_28 * x_25 - 16.5 x_28 * x_26 + 24.5 x_28 * x_27 + 2.5 x_28 * x_28 + 1.5 x_28 * x_29 - 19.5 x_28 * x_30 + 13.5 x_29 * x_1 - 13.0 x_29 * x_2 - 15.0 x_29 * x_3 - 4.0 x_29 * x_4 - 9.5 x_29 * x_5 - 11.0 x_29 * x_6 - 14.5 x_29 * x_7 + 21.5 x_29 * x_8 + 6.5 x_29 * x_9 + 12.0 x_29 * x_10 + 8.0 x_29 * x_11 + 17.5 x_29 * x_12 - 4.0 x_29 * x_13 + 20.0 x_29 * x_14 + 24.5 x_29 * x_15 + 19.5 x_29 * x_16 + 9.0 x_29 * x_17 + 19.0 x_29 * x_18 - 7.5 x_29 * x_19 - 16.5 x_29 * x_20 + 2.0 x_29 * x_21 - 11.0 x_29 * x_22 + 16.0 x_29 * x_23 + 13.0 x_29 * x_24 + 1.5 x_29 * x_25 - 13.0 x_29 * x_26 + 11.5 x_29 * x_27 + 1.5 x_29 * x_28 + 14.5 x_29 * x_29 + 4.0 x_29 * x_30 + 2.0 x_30 * x_1 - 13.5 x_30 * x_2 + 18.5 x_30 * x_3 - 1.0 x_30 * x_4 - 21.5 x_30 * x_5 + 7.0 x_30 * x_6 + 7.0 x_30 * x_7 - 7.5 x_30 * x_8 + 21.0 x_30 * x_9 + 6.5 x_30 * x_10 - 19.0 x_30 * x_11 + 15.5 x_30 * x_12 + 18.0 x_30 * x_13 + 23.0 x_30 * x_14 - 11.5 x_30 * x_15 - 24.5 x_30 * x_16 - 7.5 x_30 * x_17 - 17.5 x_30 * x_18 + 8.5 x_30 * x_19 + 15.5 x_30 * x_20 + 9.0 x_30 * x_21 - 16.5 x_30 * x_22 - 15.5 x_30 * x_23 - 7.0 x_30 * x_24 + 2.5 x_30 * x_25 + 13.0 x_30 * x_26 + 3.5 x_30 * x_27 - 19.5 x_30 * x_28 + 4.0 x_30 * x_29 + 3.0 x_30 * x_30 ] + 15.0 x_1 - 46.0 x_2 + 42.0 x_3 + 16.0 x_4 + 33.0 x_5 - 34.0 x_6 - 39.0 x_7 - 10.0 x_8 + 0.0 x_9 + 48.0 x_10 + 46.0 x_11 + 34.0 x_12 + 15.0 x_13 + 31.0 x_14 + 5.0 x_15 + 31.0 x_16 - 49.0 x_17 + 9.0 x_18 + 6.0 x_19 + 31.0 x_20 - 18.0 x_21 - 4.0 x_22 - 19.0 x_23 + 9.0 x_24 - 30.0 x_25 - 8.0 x_26 + 40.0 x_27 - 46.0 x_28 + 7.0 x_29 - 23.0 x_30

Subject To
 e2: [  x_1 * x_4 ] = 0.0
 e3: [  x_1 * x_5 ] = 0.0
 e4: [  x_1 * x_6 ] = 0.0
 e5: [  x_1 * x_7 ] = 0.0
 e6: [  x_1 * x_9 ] = 0.0
 e7: [  x_1 * x_11 ] = 0.0
 e8: [  x_1 * x_15 ] = 0.0
 e9: [  x_1 * x_18 ] = 0.0
 e10: [  x_1 * x_20 ] = 0.0
 e11: [  x_1 * x_21 ] = 0.0
 e12: [  x_1 * x_22 ] = 0.0
 e13: [  x_1 * x_24 ] = 0.0
 e14: [  x_1 * x_28 ] = 0.0
 e15: [  x_1 * x_29 ] = 0.0
 e16: [  x_2 * x_1 ] = 0.0
 e17: [  x_2 * x_3 ] = 0.0
 e18: [  x_2 * x_5 ] = 0.0
 e19: [  x_2 * x_7 ] = 0.0
 e20: [  x_2 * x_9 ] = 0.0
 e21: [  x_2 * x_10 ] = 0.0
 e22: [  x_2 * x_12 ] = 0.0
 e23: [  x_2 * x_13 ] = 0.0
 e24: [  x_2 * x_15 ] = 0.0
 e25: [  x_2 * x_17 ] = 0.0
 e26: [  x_2 * x_22 ] = 0.0
 e27: [  x_2 * x_26 ] = 0.0
 e28: [  x_2 * x_28 ] = 0.0
 e29: [  x_2 * x_30 ] = 0.0
 e30: [  x_3 * x_1 ] = 0.0
 e31: [  x_3 * x_3 ] = 0.0
 e32: [  x_3 * x_5 ] = 0.0
 e33: [  x_3 * x_6 ] = 0.0
 e34: [  x_3 * x_8 ] = 0.0
 e35: [  x_3 * x_9 ] = 0.0
 e36: [  x_3 * x_12 ] = 0.0
 e37: [  x_3 * x_15 ] = 0.0
 e38: [  x_3 * x_16 ] = 0.0
 e39: [  x_3 * x_19 ] = 0.0
 e40: [  x_3 * x_22 ] = 0.0
 e41: [  x_3 * x_23 ] = 0.0
 e42: [  x_3 * x_24 ] = 0.0
 e43: [  x_3 * x_27 ] = 0.0
 e44: [  x_3 * x_28 ] = 0.0
 e45: [  x_4 * x_3 ] = 0.0
 e46: [  x_4 * x_4 ] = 0.0
 e47: [  x_4 * x_7 ] = 0.0
 e48: [  x_4 * x_8 ] = 0.0
 e49: [  x_4 * x_11 ] = 0.0
 e50: [  x_4 * x_13 ] = 0.0
 e51: [  x_4 * x_14 ] = 0.0
 e52: [  x_4 * x_15 ] = 0.0
 e53: [  x_4 * x_18 ] = 0.0
 e54: [  x_4 * x_19 ] = 0.0
 e55: [  x_4 * x_21 ] = 0.0
 e56: [  x_4 * x_23 ] = 0.0
 e57: [  x_4 * x_24 ] = 0.0
 e58: [  x_4 * x_26 ] = 0.0
 e59: [  x_4 * x_28 ] = 0.0
 e60: [  x_4 * x_29 ] = 0.0
 e61: [  x_4 * x_30 ] = 0.0
 e62: [  x_5 * x_12 ] = 0.0
 e63: [  x_5 * x_14 ] = 0.0
 e64: [  x_5 * x_17 ] = 0.0
 e65: [  x_5 * x_18 ] = 0.0
 e66: [  x_5 * x_24 ] = 0.0
 e67: [  x_5 * x_27 ] = 0.0
 e68: [  x_5 * x_29 ] = 0.0
 e69: [  x_6 * x_1 ] = 0.0
 e70: [  x_6 * x_4 ] = 0.0
 e71: [  x_6 * x_8 ] = 0.0
 e72: [  x_6 * x_9 ] = 0.0
 e73: [  x_6 * x_12 ] = 0.0
 e74: [  x_6 * x_21 ] = 0.0
 e75: [  x_6 * x_22 ] = 0.0
 e76: [  x_6 * x_25 ] = 0.0
 e77: [  x_6 * x_28 ] = 0.0
 e78: [  x_6 * x_30 ] = 0.0
 e79: [  x_7 * x_3 ] = 0.0
 e80: [  x_7 * x_4 ] = 0.0
 e81: [  x_7 * x_6 ] = 0.0
 e82: [  x_7 * x_8 ] = 0.0
 e83: [  x_7 * x_9 ] = 0.0
 e84: [  x_7 * x_11 ] = 0.0
 e85: [  x_7 * x_12 ] = 0.0
 e86: [  x_7 * x_20 ] = 0.0
 e87: [  x_7 * x_21 ] = 0.0
 e88: [  x_7 * x_22 ] = 0.0
 e89: [  x_7 * x_24 ] = 0.0
 e90: [  x_7 * x_28 ] = 0.0
 e91: [  x_8 * x_1 ] = 0.0
 e92: [  x_8 * x_2 ] = 0.0
 e93: [  x_8 * x_5 ] = 0.0
 e94: [  x_8 * x_7 ] = 0.0
 e95: [  x_8 * x_10 ] = 0.0
 e96: [  x_8 * x_11 ] = 0.0
 e97: [  x_8 * x_18 ] = 0.0
 e98: [  x_8 * x_21 ] = 0.0
 e99: [  x_8 * x_22 ] = 0.0
 e100: [  x_8 * x_24 ] = 0.0
 e101: [  x_8 * x_25 ] = 0.0
 e102: [  x_8 * x_26 ] = 0.0
 e103: [  x_8 * x_28 ] = 0.0
 e104: [  x_9 * x_7 ] = 0.0
 e105: [  x_9 * x_11 ] = 0.0
 e106: [  x_9 * x_15 ] = 0.0
 e107: [  x_9 * x_16 ] = 0.0
 e108: [  x_9 * x_20 ] = 0.0
 e109: [  x_9 * x_21 ] = 0.0
 e110: [  x_9 * x_22 ] = 0.0
 e111: [  x_9 * x_25 ] = 0.0
 e112: [  x_9 * x_28 ] = 0.0
 e113: [  x_10 * x_3 ] = 0.0
 e114: [  x_10 * x_4 ] = 0.0
 e115: [  x_10 * x_5 ] = 0.0
 e116: [  x_10 * x_6 ] = 0.0
 e117: [  x_10 * x_7 ] = 0.0
 e118: [  x_10 * x_11 ] = 0.0
 e119: [  x_10 * x_17 ] = 0.0
 e120: [  x_10 * x_21 ] = 0.0
 e121: [  x_10 * x_24 ] = 0.0
 e122: [  x_10 * x_25 ] = 0.0
 e123: [  x_10 * x_27 ] = 0.0
 e124: [  x_10 * x_30 ] = 0.0
 e125: [  x_11 * x_3 ] = 0.0
 e126: [  x_11 * x_7 ] = 0.0
 e127: [  x_11 * x_10 ] = 0.0
 e128: [  x_11 * x_11 ] = 0.0
 e129: [  x_11 * x_14 ] = 0.0
 e130: [  x_11 * x_15 ] = 0.0
 e131: [  x_11 * x_16 ] = 0.0
 e132: [  x_11 * x_17 ] = 0.0
 e133: [  x_11 * x_18 ] = 0.0
 e134: [  x_11 * x_19 ] = 0.0
 e135: [  x_11 * x_22 ] = 0.0
 e136: [  x_11 * x_28 ] = 0.0
 e137: [  x_11 * x_30 ] = 0.0
 e138: [  x_12 * x_1 ] = 0.0
 e139: [  x_12 * x_3 ] = 0.0
 e140: [  x_12 * x_6 ] = 0.0
 e141: [  x_12 * x_9 ] = 0.0
 e142: [  x_12 * x_14 ] = 0.0
 e143: [  x_12 * x_18 ] = 0.0
 e144: [  x_12 * x_22 ] = 0.0
 e145: [  x_12 * x_25 ] = 0.0
 e146: [  x_12 * x_26 ] = 0.0
 e147: [  x_12 * x_30 ] = 0.0
 e148: [  x_13 * x_4 ] = 0.0
 e149: [  x_13 * x_5 ] = 0.0
 e150: [  x_13 * x_8 ] = 0.0
 e151: [  x_13 * x_11 ] = 0.0
 e152: [  x_13 * x_14 ] = 0.0
 e153: [  x_13 * x_16 ] = 0.0
 e154: [  x_13 * x_21 ] = 0.0
 e155: [  x_13 * x_25 ] = 0.0
 e156: [  x_13 * x_26 ] = 0.0
 e157: [  x_13 * x_28 ] = 0.0
 e158: [  x_13 * x_29 ] = 0.0
 e159: [  x_13 * x_30 ] = 0.0
 e160: [  x_14 * x_5 ] = 0.0
 e161: [  x_14 * x_8 ] = 0.0
 e162: [  x_14 * x_9 ] = 0.0
 e163: [  x_14 * x_10 ] = 0.0
 e164: [  x_14 * x_13 ] = 0.0
 e165: [  x_14 * x_14 ] = 0.0
 e166: [  x_14 * x_15 ] = 0.0
 e167: [  x_14 * x_17 ] = 0.0
 e168: [  x_14 * x_18 ] = 0.0
 e169: [  x_14 * x_20 ] = 0.0
 e170: [  x_14 * x_22 ] = 0.0
 e171: [  x_14 * x_28 ] = 0.0
 e172: [  x_14 * x_30 ] = 0.0
 e173: [  x_15 * x_2 ] = 0.0
 e174: [  x_15 * x_4 ] = 0.0
 e175: [  x_15 * x_10 ] = 0.0
 e176: [  x_15 * x_11 ] = 0.0
 e177: [  x_15 * x_14 ] = 0.0
 e178: [  x_15 * x_15 ] = 0.0
 e179: [  x_15 * x_16 ] = 0.0
 e180: [  x_15 * x_24 ] = 0.0
 e181: [  x_15 * x_26 ] = 0.0
 e182: [  x_15 * x_27 ] = 0.0
 e183: [  x_15 * x_29 ] = 0.0
 e184: [  x_16 * x_2 ] = 0.0
 e185: [  x_16 * x_3 ] = 0.0
 e186: [  x_16 * x_6 ] = 0.0
 e187: [  x_16 * x_7 ] = 0.0
 e188: [  x_16 * x_9 ] = 0.0
 e189: [  x_16 * x_11 ] = 0.0
 e190: [  x_16 * x_12 ] = 0.0
 e191: [  x_16 * x_13 ] = 0.0
 e192: [  x_16 * x_16 ] = 0.0
 e193: [  x_16 * x_19 ] = 0.0
 e194: [  x_16 * x_20 ] = 0.0
 e195: [  x_16 * x_22 ] = 0.0
 e196: [  x_16 * x_26 ] = 0.0
 e197: [  x_16 * x_27 ] = 0.0
 e198: [  x_17 * x_2 ] = 0.0
 e199: [  x_17 * x_4 ] = 0.0
 e200: [  x_17 * x_7 ] = 0.0
 e201: [  x_17 * x_11 ] = 0.0
 e202: [  x_17 * x_12 ] = 0.0
 e203: [  x_17 * x_13 ] = 0.0
 e204: [  x_17 * x_14 ] = 0.0
 e205: [  x_17 * x_17 ] = 0.0
 e206: [  x_17 * x_21 ] = 0.0
 e207: [  x_17 * x_23 ] = 0.0
 e208: [  x_17 * x_24 ] = 0.0
 e209: [  x_17 * x_25 ] = 0.0
 e210: [  x_17 * x_27 ] = 0.0
 e211: [  x_17 * x_28 ] = 0.0
 e212: [  x_17 * x_29 ] = 0.0
 e213: [  x_18 * x_8 ] = 0.0
 e214: [  x_18 * x_11 ] = 0.0
 e215: [  x_18 * x_16 ] = 0.0
 e216: [  x_18 * x_18 ] = 0.0
 e217: [  x_18 * x_23 ] = 0.0
 e218: [  x_18 * x_25 ] = 0.0
 e219: [  x_18 * x_27 ] = 0.0
 e220: [  x_18 * x_29 ] = 0.0
 e221: [  x_18 * x_30 ] = 0.0
 e222: [  x_19 * x_1 ] = 0.0
 e223: [  x_19 * x_5 ] = 0.0
 e224: [  x_19 * x_7 ] = 0.0
 e225: [  x_19 * x_8 ] = 0.0
 e226: [  x_19 * x_9 ] = 0.0
 e227: [  x_19 * x_11 ] = 0.0
 e228: [  x_19 * x_13 ] = 0.0
 e229: [  x_19 * x_16 ] = 0.0
 e230: [  x_19 * x_19 ] = 0.0
 e231: [  x_19 * x_21 ] = 0.0
 e232: [  x_19 * x_23 ] = 0.0
 e233: [  x_19 * x_26 ] = 0.0
 e234: [  x_19 * x_27 ] = 0.0
 e235: [  x_19 * x_29 ] = 0.0
 e236: [  x_19 * x_30 ] = 0.0
 e237: [  x_20 * x_2 ] = 0.0
 e238: [  x_20 * x_5 ] = 0.0
 e239: [  x_20 * x_7 ] = 0.0
 e240: [  x_20 * x_9 ] = 0.0
 e241: [  x_20 * x_11 ] = 0.0
 e242: [  x_20 * x_16 ] = 0.0
 e243: [  x_20 * x_17 ] = 0.0
 e244: [  x_20 * x_18 ] = 0.0
 e245: [  x_20 * x_20 ] = 0.0
 e246: [  x_20 * x_21 ] = 0.0
 e247: [  x_20 * x_23 ] = 0.0
 e248: [  x_20 * x_24 ] = 0.0
 e249: [  x_20 * x_25 ] = 0.0
 e250: [  x_20 * x_26 ] = 0.0
 e251: [  x_20 * x_29 ] = 0.0
 e252: [  x_20 * x_30 ] = 0.0
 e253: [  x_21 * x_1 ] = 0.0
 e254: [  x_21 * x_7 ] = 0.0
 e255: [  x_21 * x_8 ] = 0.0
 e256: [  x_21 * x_11 ] = 0.0
 e257: [  x_21 * x_12 ] = 0.0
 e258: [  x_21 * x_13 ] = 0.0
 e259: [  x_21 * x_14 ] = 0.0
 e260: [  x_21 * x_18 ] = 0.0
 e261: [  x_21 * x_22 ] = 0.0
 e262: [  x_21 * x_23 ] = 0.0
 e263: [  x_21 * x_24 ] = 0.0
 e264: [  x_21 * x_25 ] = 0.0
 e265: [  x_21 * x_27 ] = 0.0
 e266: [  x_21 * x_28 ] = 0.0
 e267: [  x_22 * x_1 ] = 0.0
 e268: [  x_22 * x_3 ] = 0.0
 e269: [  x_22 * x_4 ] = 0.0
 e270: [  x_22 * x_9 ] = 0.0
 e271: [  x_22 * x_11 ] = 0.0
 e272: [  x_22 * x_12 ] = 0.0
 e273: [  x_22 * x_14 ] = 0.0
 e274: [  x_22 * x_15 ] = 0.0
 e275: [  x_22 * x_22 ] = 0.0
 e276: [  x_22 * x_23 ] = 0.0
 e277: [  x_22 * x_27 ] = 0.0
 e278: [  x_23 * x_3 ] = 0.0
 e279: [  x_23 * x_7 ] = 0.0
 e280: [  x_23 * x_9 ] = 0.0
 e281: [  x_23 * x_11 ] = 0.0
 e282: [  x_23 * x_12 ] = 0.0
 e283: [  x_23 * x_13 ] = 0.0
 e284: [  x_23 * x_22 ] = 0.0
 e285: [  x_23 * x_24 ] = 0.0
 e286: [  x_24 * x_2 ] = 0.0
 e287: [  x_24 * x_3 ] = 0.0
 e288: [  x_24 * x_4 ] = 0.0
 e289: [  x_24 * x_7 ] = 0.0
 e290: [  x_24 * x_10 ] = 0.0
 e291: [  x_24 * x_14 ] = 0.0
 e292: [  x_24 * x_16 ] = 0.0
 e293: [  x_24 * x_17 ] = 0.0
 e294: [  x_24 * x_23 ] = 0.0
 e295: [  x_24 * x_27 ] = 0.0
 e296: [  x_24 * x_30 ] = 0.0
 e297: [  x_25 * x_3 ] = 0.0
 e298: [  x_25 * x_4 ] = 0.0
 e299: [  x_25 * x_5 ] = 0.0
 e300: [  x_25 * x_8 ] = 0.0
 e301: [  x_25 * x_9 ] = 0.0
 e302: [  x_25 * x_11 ] = 0.0
 e303: [  x_25 * x_14 ] = 0.0
 e304: [  x_25 * x_20 ] = 0.0
 e305: [  x_25 * x_21 ] = 0.0
 e306: [  x_25 * x_25 ] = 0.0
 e307: [  x_25 * x_28 ] = 0.0
 e308: [  x_25 * x_29 ] = 0.0
 e309: [  x_25 * x_30 ] = 0.0
 e310: [  x_26 * x_2 ] = 0.0
 e311: [  x_26 * x_7 ] = 0.0
 e312: [  x_26 * x_9 ] = 0.0
 e313: [  x_26 * x_11 ] = 0.0
 e314: [  x_26 * x_14 ] = 0.0
 e315: [  x_26 * x_25 ] = 0.0
 e316: [  x_26 * x_26 ] = 0.0
 e317: [  x_26 * x_29 ] = 0.0
 e318: [  x_26 * x_30 ] = 0.0
 e319: [  x_27 * x_2 ] = 0.0
 e320: [  x_27 * x_4 ] = 0.0
 e321: [  x_27 * x_5 ] = 0.0
 e322: [  x_27 * x_8 ] = 0.0
 e323: [  x_27 * x_11 ] = 0.0
 e324: [  x_27 * x_12 ] = 0.0
 e325: [  x_27 * x_15 ] = 0.0
 e326: [  x_27 * x_17 ] = 0.0
 e327: [  x_27 * x_19 ] = 0.0
 e328: [  x_27 * x_25 ] = 0.0
 e329: [  x_27 * x_30 ] = 0.0
 e330: [  x_28 * x_1 ] = 0.0
 e331: [  x_28 * x_2 ] = 0.0
 e332: [  x_28 * x_5 ] = 0.0
 e333: [  x_28 * x_10 ] = 0.0
 e334: [  x_28 * x_11 ] = 0.0
 e335: [  x_28 * x_13 ] = 0.0
 e336: [  x_28 * x_14 ] = 0.0
 e337: [  x_28 * x_23 ] = 0.0
 e338: [  x_28 * x_24 ] = 0.0
 e339: [  x_28 * x_26 ] = 0.0
 e340: [  x_28 * x_29 ] = 0.0
 e341: [  x_29 * x_6 ] = 0.0
 e342: [  x_29 * x_8 ] = 0.0
 e343: [  x_29 * x_10 ] = 0.0
 e344: [  x_29 * x_11 ] = 0.0
 e345: [  x_29 * x_14 ] = 0.0
 e346: [  x_29 * x_18 ] = 0.0
 e347: [  x_29 * x_19 ] = 0.0
 e348: [  x_29 * x_21 ] = 0.0
 e349: [  x_29 * x_23 ] = 0.0
 e350: [  x_29 * x_24 ] = 0.0
 e351: [  x_29 * x_26 ] = 0.0
 e352: [  x_30 * x_1 ] = 0.0
 e353: [  x_30 * x_3 ] = 0.0
 e354: [  x_30 * x_4 ] = 0.0
 e355: [  x_30 * x_6 ] = 0.0
 e356: [  x_30 * x_11 ] = 0.0
 e357: [  x_30 * x_13 ] = 0.0
 e358: [  x_30 * x_17 ] = 0.0
 e359: [  x_30 * x_18 ] = 0.0
 e360: [  x_30 * x_19 ] = 0.0
 e361: [  x_30 * x_20 ] = 0.0
 e362: [  x_30 * x_24 ] = 0.0
 e363: [  x_30 * x_26 ] = 0.0
 e364: [  x_30 * x_27 ] = 0.0
 e365: [  x_30 * x_29 ] = 0.0

Bounds
 x_1 <= 1.0
 x_2 <= 1.0
 x_3 <= 1.0
 x_4 <= 1.0
 x_5 <= 1.0
 x_6 <= 1.0
 x_7 <= 1.0
 x_8 <= 1.0
 x_9 <= 1.0
 x_10 <= 1.0
 x_11 <= 1.0
 x_12 <= 1.0
 x_13 <= 1.0
 x_14 <= 1.0
 x_15 <= 1.0
 x_16 <= 1.0
 x_17 <= 1.0
 x_18 <= 1.0
 x_19 <= 1.0
 x_20 <= 1.0
 x_21 <= 1.0
 x_22 <= 1.0
 x_23 <= 1.0
 x_24 <= 1.0
 x_25 <= 1.0
 x_26 <= 1.0
 x_27 <= 1.0
 x_28 <= 1.0
 x_29 <= 1.0
 x_30 <= 1.0

End